-18817.0 -18586.0 
-18333.0 -19018.0 
-18385.0 -18994.0 
-18545.0 -18955.0 
-18759.0 -18676.0 
-18794.0 -18642.0 
-18732.0 -18740.0 
-18692.0 -18805.0 
-18709.0 -18777.0 
-18755.0 -18720.0 
-18794.0 -18642.0 
-18579.0 -18926.0 
-18623.0 -18880.0 
-18633.0 -18874.0 
-18594.0 -18888.0 
-18651.0 -18836.0 
-18664.0 -18808.0 
-18719.0 -18762.0 
-18651.0 -18836.0 
-18564.0 -18940.0 
-18580.0 -18902.0 
-18564.0 -18940.0 
-18719.0 -18762.0 
-18584.0 -18892.0 
-18755.0 -18720.0 
-18654.0 -18822.0 
-18633.0 -18874.0 
-18546.0 -18954.0 
-18654.0 -18822.0 
-18546.0 -18954.0 
-18664.0 -18808.0 
-18580.0 -18902.0 
-18664.0 -18808.0 
-18664.0 -18808.0 
-18664.0 -18808.0 
-18664.0 -18808.0 
-18664.0 -18808.0 
-18664.0 -18808.0 
-18664.0 -18808.0 
-18664.0 -18808.0 
-18664.0 -18808.0 
-18664.0 -18808.0 
-18664.0 -18808.0 
-18664.0 -18808.0 
-18664.0 -18808.0 
-18664.0 -18808.0 
-18664.0 -18808.0 
-18664.0 -18808.0 
-18664.0 -18808.0 
-18664.0 -18808.0 
-18664.0 -18808.0 
-18664.0 -18808.0 
-18664.0 -18808.0 
-18664.0 -18808.0 
-18664.0 -18808.0 
-18664.0 -18808.0 
-18664.0 -18808.0 
-18664.0 -18808.0 
-18664.0 -18808.0 
-18664.0 -18808.0 
-18664.0 -18808.0 
-18664.0 -18808.0 
-18664.0 -18808.0 
-18664.0 -18808.0 
-18664.0 -18808.0 
-18664.0 -18808.0 
-18664.0 -18808.0 
-18664.0 -18808.0 
-18664.0 -18808.0 
-18664.0 -18808.0 
-18664.0 -18808.0 
-18664.0 -18808.0 
-18664.0 -18808.0 
-18664.0 -18808.0 
-18664.0 -18808.0 
-18664.0 -18808.0 
-18664.0 -18808.0 
-18664.0 -18808.0 
-18664.0 -18808.0 
-18664.0 -18808.0 
-18664.0 -18808.0 
-18664.0 -18808.0 
-18664.0 -18808.0 
-18664.0 -18808.0 
-18664.0 -18808.0 
-18664.0 -18808.0 
-18664.0 -18808.0 
-18664.0 -18808.0 
-18664.0 -18808.0 
-18664.0 -18808.0 
-18664.0 -18808.0 
-18664.0 -18808.0 
-18664.0 -18808.0 
-18664.0 -18808.0 
-18664.0 -18808.0 
-18664.0 -18808.0 
-18664.0 -18808.0 
-18664.0 -18808.0 
-18664.0 -18808.0 
-18664.0 -18808.0 
